(set-logic BV) (define-fun origCir ((n609 Bool) (n610 Bool) (n322 Bool) (n547 Bool) (i_24 Bool)) Bool (xor (xor n610 n609) (and (and n547 n322) i_24))) (synth-fun skel ((n609 Bool) (n610 Bool) (n322 Bool) (n547 Bool) (i_24 Bool)) Bool) (declare-var n609 Bool) (declare-var n610 Bool) (declare-var n322 Bool) (declare-var n547 Bool) (declare-var i_24 Bool) (constraint (= (origCir n609 n610 n322 n547 i_24) (skel n609 n610 n322 n547 i_24))) (check-synth)
